projet_m2_wvcp/original_wvcp_dzn/p42.clq.dzn
cliques=[{8,1,3,7,5,6,4,0,2},{10,1,45,74,130,92,111,64,52,18,26,120,102},{8,1,3,7,5,6,4,0,2},{55,12,3,37,134,96,124,28,106,114,87},{8,1,3,7,5,6,4,0,2},{8,1,3,7,5,6,4,0,2},{8,1,3,7,5,6,4,0,2},{8,1,3,7,5,6,4,0,2},{8,1,3,7,5,6,4,0,2},{10,12,16,13,9,15,11,14},{10,1,45,74,130,92,111,64,52,18,26,120,102},{10,12,16,13,9,15,11,14},{55,12,3,37,134,96,124,28,106,114,87},{10,12,16,13,9,15,11,14},{10,12,16,13,9,15,11,14},{10,12,16,13,9,15,11,14},{10,12,16,13,9,15,11,14},{20,19,23,21,22,17,18},{10,1,45,74,130,92,111,64,52,18,26,120,102},{20,19,23,21,22,17,18},{20,19,23,21,22,17,18},{20,19,23,21,22,17,18},{20,19,23,21,22,17,18},{8,43,23,81,61,51,29,70,98,116,88,107},{31,72,118,90,24,109,63,100,83},{101,91,128,110,119,25,32,84},{10,1,45,74,130,92,111,64,52,18,26,120,102},{53,34,103,131,93,112,121,27,85},{55,12,3,37,134,96,124,28,106,114,87},{8,43,23,81,61,51,29,70,98,116,88,107},{31,30,34,37,43,39,41,36,35,32,33,42,40,38},{31,30,34,37,43,39,41,36,35,32,33,42,40,38},{31,30,34,37,43,39,41,36,35,32,33,42,40,38},{31,30,34,37,43,39,41,36,35,32,33,42,40,38},{31,30,34,37,43,39,41,36,35,32,33,42,40,38},{31,30,34,37,43,39,41,36,35,32,33,42,40,38},{31,30,34,37,43,39,41,36,35,32,33,42,40,38},{31,30,34,37,43,39,41,36,35,32,33,42,40,38},{31,30,34,37,43,39,41,36,35,32,33,42,40,38},{31,30,34,37,43,39,41,36,35,32,33,42,40,38},{31,30,34,37,43,39,41,36,35,32,33,42,40,38},{31,30,34,37,43,39,41,36,35,32,33,42,40,38},{31,30,34,37,43,39,41,36,35,32,33,42,40,38},{31,30,34,37,43,39,41,36,35,32,33,42,40,38},{46,45,48,51,47,49,50,44},{10,1,45,74,130,92,111,64,52,18,26,120,102},{75,94,46,122,132,65,104,35,113,86},{57,19,39,13,4,77,47,67,136,125},{20,5,58,14,48,40,78,68},{46,45,48,51,47,49,50,44},{16,60,7,22,42,80,50,97,115,69},{8,43,23,81,61,51,29,70,98,116,88,107},{10,1,45,74,130,92,111,64,52,18,26,120,102},{55,57,53,60,61,54,58,52,59,56},{55,57,53,60,61,54,58,52,59,56},{55,57,53,60,61,54,58,52,59,56},{55,57,53,60,61,54,58,52,59,56},{55,57,53,60,61,54,58,52,59,56},{55,57,53,60,61,54,58,52,59,56},{55,57,53,60,61,54,58,52,59,56},{55,57,53,60,61,54,58,52,59,56},{55,57,53,60,61,54,58,52,59,56},{127,30,71,117,99,108,89,82,62},{31,72,118,90,24,109,63,100,83},{10,1,45,74,130,92,111,64,52,18,26,120,102},{75,94,46,122,132,65,104,35,113,86},{64,65,63,67,70,62,68,69,66},{57,19,39,13,4,77,47,67,136,125},{20,5,58,14,48,40,78,68},{16,60,7,22,42,80,50,97,115,69},{8,43,23,81,61,51,29,70,98,116,88,107},{75,72,71,74,81,77,80,73,79,78,76},{31,72,118,90,24,109,63,100,83},{75,72,71,74,81,77,80,73,79,78,76},{10,1,45,74,130,92,111,64,52,18,26,120,102},{75,94,46,122,132,65,104,35,113,86},{75,72,71,74,81,77,80,73,79,78,76},{75,72,71,74,81,77,80,73,79,78,76},{75,72,71,74,81,77,80,73,79,78,76},{75,72,71,74,81,77,80,73,79,78,76},{75,72,71,74,81,77,80,73,79,78,76},{75,72,71,74,81,77,80,73,79,78,76},{127,30,71,117,99,108,89,82,62},{31,72,118,90,24,109,63,100,83},{101,91,128,110,119,25,32,84},{53,34,103,131,93,112,121,27,85},{75,94,46,122,132,65,104,35,113,86},{55,12,3,37,134,96,124,28,106,114,87},{8,43,23,81,61,51,29,70,98,116,88,107},{127,30,71,117,99,108,89,82,62},{31,72,118,90,24,109,63,100,83},{101,91,128,110,119,25,32,84},{10,1,45,74,130,92,111,64,52,18,26,120,102},{94,91,92,90,89,96,93,95,98,97},{75,94,46,122,132,65,104,35,113,86},{94,91,92,90,89,96,93,95,98,97},{55,12,3,37,134,96,124,28,106,114,87},{94,91,92,90,89,96,93,95,98,97},{8,43,23,81,61,51,29,70,98,116,88,107},{127,30,71,117,99,108,89,82,62},{31,72,118,90,24,109,63,100,83},{101,91,128,110,119,25,32,84},{10,1,45,74,130,92,111,64,52,18,26,120,102},{101,99,104,100,103,102,106,105,107},{75,94,46,122,132,65,104,35,113,86},{101,99,104,100,103,102,106,105,107},{55,12,3,37,134,96,124,28,106,114,87},{8,43,23,81,61,51,29,70,98,116,88,107},{127,30,71,117,99,108,89,82,62},{31,72,118,90,24,109,63,100,83},{101,91,128,110,119,25,32,84},{10,1,45,74,130,92,111,64,52,18,26,120,102},{53,34,103,131,93,112,121,27,85},{75,94,46,122,132,65,104,35,113,86},{55,12,3,37,134,96,124,28,114,106,87},{16,60,7,22,42,80,50,97,115,69},{8,43,23,81,61,51,29,70,98,116,88,107},{127,30,71,117,99,108,89,82,62},{31,72,118,90,24,109,63,100,83},{101,91,128,110,119,25,32,84},{10,1,45,74,130,92,111,64,52,18,26,120,102},{118,122,117,119,120,124,121,125,126,123},{75,94,46,122,132,65,104,35,113,86},{118,122,117,119,120,124,121,125,126,123},{55,12,3,37,134,96,124,28,106,114,87},{57,19,39,13,4,77,47,67,136,125},{118,122,117,119,120,124,121,125,126,123},{127,30,71,117,99,108,89,82,62},{127,130,128,134,132,131,129,133,136,137,135},{127,130,128,134,132,131,129,133,136,137,135},{10,1,45,74,130,92,111,64,52,18,26,120,102},{127,130,128,134,132,131,129,133,136,137,135},{75,94,46,122,132,65,104,35,113,86},{127,130,128,134,132,131,129,133,136,137,135},{55,12,3,37,134,96,124,28,106,114,87},{127,130,128,134,132,131,129,133,136,137,135},{127,130,128,134,132,131,129,133,136,137,135},{127,130,128,134,132,131,129,133,136,137,135}];
nr_cliques=138;
