projet_m2_wvcp/original_wvcp_dzn/p42.dzn
name="p42";
nr_vertices=138;
nr_edges=1186;
neighborhoods=[{1,2,3,4,5,6,7,8,9,17,33,44,73,129},{0,2,3,4,5,6,7,8,10,18,26,45,52,64,74,92,102,111,120,130},{0,1,3,4,5,6,7,8,11,36,54,95,105,123,133},{0,1,2,4,5,6,7,8,12,28,37,55,87,96,106,114,124,134},{0,1,2,3,5,6,7,8,13,19,39,47,57,67,77,125,136},{0,1,2,3,4,6,7,8,14,20,40,48,58,68,78},{0,1,2,3,4,5,7,8,15,21,41,49,59,79,126,137},{0,1,2,3,4,5,6,8,16,22,42,50,60,69,80,97,115},{0,1,2,3,4,5,6,7,23,29,43,51,61,70,81,88,98,107,116},{0,10,11,12,13,14,15,16,17,33,44,73,129},{1,9,11,12,13,14,15,16,18,26,45,52,64,74,92,102,111,120,130},{2,9,10,12,13,14,15,16,36,54,95,105,123,133},{3,9,10,11,13,14,15,16,28,37,55,87,96,106,114,124,134},{4,9,10,11,12,14,15,16,19,39,47,57,67,77,125,136},{5,9,10,11,12,13,15,16,20,40,48,58,68,78},{6,9,10,11,12,13,14,16,21,41,49,59,79,126,137},{7,9,10,11,12,13,14,15,22,42,50,60,69,80,97,115},{0,9,18,19,20,21,22,23,33,44,73,129},{1,10,17,19,20,21,22,23,26,45,52,64,74,92,102,111,120,130},{4,13,17,18,20,21,22,23,39,47,57,67,77,125,136},{5,14,17,18,19,21,22,23,40,48,58,68,78},{6,15,17,18,19,20,22,23,41,49,59,79,126,137},{7,16,17,18,19,20,21,23,42,50,60,69,80,97,115},{8,17,18,19,20,21,22,29,43,51,61,70,81,88,98,107,116},{25,26,27,28,29,31,63,72,83,90,100,109,118},{24,26,27,28,29,32,84,91,101,110,119,128},{1,10,18,24,25,27,28,29,45,52,64,74,92,102,111,120,130},{24,25,26,28,29,34,53,85,93,103,112,121,131},{3,12,24,25,26,27,29,37,55,87,96,106,114,124,134},{8,23,24,25,26,27,28,43,51,61,70,81,88,98,107,116},{31,32,33,34,35,36,37,38,39,40,41,42,43,62,71,82,89,99,108,117,127},{24,30,32,33,34,35,36,37,38,39,40,41,42,43,63,72,83,90,100,109,118},{25,30,31,33,34,35,36,37,38,39,40,41,42,43,84,91,101,110,119,128},{0,9,17,30,31,32,34,35,36,37,38,39,40,41,42,43,44,73,129},{27,30,31,32,33,35,36,37,38,39,40,41,42,43,53,85,93,103,112,121,131},{30,31,32,33,34,36,37,38,39,40,41,42,43,46,65,75,86,94,104,113,122,132},{2,11,30,31,32,33,34,35,37,38,39,40,41,42,43,54,95,105,123,133},{3,12,28,30,31,32,33,34,35,36,38,39,40,41,42,43,55,87,96,106,114,124,134},{30,31,32,33,34,35,36,37,39,40,41,42,43,56,66,76,135},{4,13,19,30,31,32,33,34,35,36,37,38,40,41,42,43,47,57,67,77,125,136},{5,14,20,30,31,32,33,34,35,36,37,38,39,41,42,43,48,58,68,78},{6,15,21,30,31,32,33,34,35,36,37,38,39,40,42,43,49,59,79,126,137},{7,16,22,30,31,32,33,34,35,36,37,38,39,40,41,43,50,60,69,80,97,115},{8,23,29,30,31,32,33,34,35,36,37,38,39,40,41,42,51,61,70,81,88,98,107,116},{0,9,17,33,45,46,47,48,49,50,51,73,129},{1,10,18,26,44,46,47,48,49,50,51,52,64,74,92,102,111,120,130},{35,44,45,47,48,49,50,51,65,75,86,94,104,113,122,132},{4,13,19,39,44,45,46,48,49,50,51,57,67,77,125,136},{5,14,20,40,44,45,46,47,49,50,51,58,68,78},{6,15,21,41,44,45,46,47,48,50,51,59,79,126,137},{7,16,22,42,44,45,46,47,48,49,51,60,69,80,97,115},{8,23,29,43,44,45,46,47,48,49,50,61,70,81,88,98,107,116},{1,10,18,26,45,53,54,55,56,57,58,59,60,61,64,74,92,102,111,120,130},{27,34,52,54,55,56,57,58,59,60,61,85,93,103,112,121,131},{2,11,36,52,53,55,56,57,58,59,60,61,95,105,123,133},{3,12,28,37,52,53,54,56,57,58,59,60,61,87,96,106,114,124,134},{38,52,53,54,55,57,58,59,60,61,66,76,135},{4,13,19,39,47,52,53,54,55,56,58,59,60,61,67,77,125,136},{5,14,20,40,48,52,53,54,55,56,57,59,60,61,68,78},{6,15,21,41,49,52,53,54,55,56,57,58,60,61,79,126,137},{7,16,22,42,50,52,53,54,55,56,57,58,59,61,69,80,97,115},{8,23,29,43,51,52,53,54,55,56,57,58,59,60,70,81,88,98,107,116},{30,63,64,65,66,67,68,69,70,71,82,89,99,108,117,127},{24,31,62,64,65,66,67,68,69,70,72,83,90,100,109,118},{1,10,18,26,45,52,62,63,65,66,67,68,69,70,74,92,102,111,120,130},{35,46,62,63,64,66,67,68,69,70,75,86,94,104,113,122,132},{38,56,62,63,64,65,67,68,69,70,76,135},{4,13,19,39,47,57,62,63,64,65,66,68,69,70,77,125,136},{5,14,20,40,48,58,62,63,64,65,66,67,69,70,78},{7,16,22,42,50,60,62,63,64,65,66,67,68,70,80,97,115},{8,23,29,43,51,61,62,63,64,65,66,67,68,69,81,88,98,107,116},{30,62,72,73,74,75,76,77,78,79,80,81,82,89,99,108,117,127},{24,31,63,71,73,74,75,76,77,78,79,80,81,83,90,100,109,118},{0,9,17,33,44,71,72,74,75,76,77,78,79,80,81,129},{1,10,18,26,45,52,64,71,72,73,75,76,77,78,79,80,81,92,102,111,120,130},{35,46,65,71,72,73,74,76,77,78,79,80,81,86,94,104,113,122,132},{38,56,66,71,72,73,74,75,77,78,79,80,81,135},{4,13,19,39,47,57,67,71,72,73,74,75,76,78,79,80,81,125,136},{5,14,20,40,48,58,68,71,72,73,74,75,76,77,79,80,81},{6,15,21,41,49,59,71,72,73,74,75,76,77,78,80,81,126,137},{7,16,22,42,50,60,69,71,72,73,74,75,76,77,78,79,81,97,115},{8,23,29,43,51,61,70,71,72,73,74,75,76,77,78,79,80,88,98,107,116},{30,62,71,83,84,85,86,87,88,89,99,108,117,127},{24,31,63,72,82,84,85,86,87,88,90,100,109,118},{25,32,82,83,85,86,87,88,91,101,110,119,128},{27,34,53,82,83,84,86,87,88,93,103,112,121,131},{35,46,65,75,82,83,84,85,87,88,94,104,113,122,132},{3,12,28,37,55,82,83,84,85,86,88,96,106,114,124,134},{8,23,29,43,51,61,70,81,82,83,84,85,86,87,98,107,116},{30,62,71,82,90,91,92,93,94,95,96,97,98,99,108,117,127},{24,31,63,72,83,89,91,92,93,94,95,96,97,98,100,109,118},{25,32,84,89,90,92,93,94,95,96,97,98,101,110,119,128},{1,10,18,26,45,52,64,74,89,90,91,93,94,95,96,97,98,102,111,120,130},{27,34,53,85,89,90,91,92,94,95,96,97,98,103,112,121,131},{35,46,65,75,86,89,90,91,92,93,95,96,97,98,104,113,122,132},{2,11,36,54,89,90,91,92,93,94,96,97,98,105,123,133},{3,12,28,37,55,87,89,90,91,92,93,94,95,97,98,106,114,124,134},{7,16,22,42,50,60,69,80,89,90,91,92,93,94,95,96,98,115},{8,23,29,43,51,61,70,81,88,89,90,91,92,93,94,95,96,97,107,116},{30,62,71,82,89,100,101,102,103,104,105,106,107,108,117,127},{24,31,63,72,83,90,99,101,102,103,104,105,106,107,109,118},{25,32,84,91,99,100,102,103,104,105,106,107,110,119,128},{1,10,18,26,45,52,64,74,92,99,100,101,103,104,105,106,107,111,120,130},{27,34,53,85,93,99,100,101,102,104,105,106,107,112,121,131},{35,46,65,75,86,94,99,100,101,102,103,105,106,107,113,122,132},{2,11,36,54,95,99,100,101,102,103,104,106,107,123,133},{3,12,28,37,55,87,96,99,100,101,102,103,104,105,107,114,124,134},{8,23,29,43,51,61,70,81,88,98,99,100,101,102,103,104,105,106,116},{30,62,71,82,89,99,109,110,111,112,113,114,115,116,117,127},{24,31,63,72,83,90,100,108,110,111,112,113,114,115,116,118},{25,32,84,91,101,108,109,111,112,113,114,115,116,119,128},{1,10,18,26,45,52,64,74,92,102,108,109,110,112,113,114,115,116,120,130},{27,34,53,85,93,103,108,109,110,111,113,114,115,116,121,131},{35,46,65,75,86,94,104,108,109,110,111,112,114,115,116,122,132},{3,12,28,37,55,87,96,106,108,109,110,111,112,113,115,116,124,134},{7,16,22,42,50,60,69,80,97,108,109,110,111,112,113,114,116},{8,23,29,43,51,61,70,81,88,98,107,108,109,110,111,112,113,114,115},{30,62,71,82,89,99,108,118,119,120,121,122,123,124,125,126,127},{24,31,63,72,83,90,100,109,117,119,120,121,122,123,124,125,126},{25,32,84,91,101,110,117,118,120,121,122,123,124,125,126,128},{1,10,18,26,45,52,64,74,92,102,111,117,118,119,121,122,123,124,125,126,130},{27,34,53,85,93,103,112,117,118,119,120,122,123,124,125,126,131},{35,46,65,75,86,94,104,113,117,118,119,120,121,123,124,125,126,132},{2,11,36,54,95,105,117,118,119,120,121,122,124,125,126,133},{3,12,28,37,55,87,96,106,114,117,118,119,120,121,122,123,125,126,134},{4,13,19,39,47,57,67,77,117,118,119,120,121,122,123,124,126,136},{6,15,21,41,49,59,79,117,118,119,120,121,122,123,124,125,137},{30,62,71,82,89,99,108,117,128,129,130,131,132,133,134,135,136,137},{25,32,84,91,101,110,119,127,129,130,131,132,133,134,135,136,137},{0,9,17,33,44,73,127,128,130,131,132,133,134,135,136,137},{1,10,18,26,45,52,64,74,92,102,111,120,127,128,129,131,132,133,134,135,136,137},{27,34,53,85,93,103,112,121,127,128,129,130,132,133,134,135,136,137},{35,46,65,75,86,94,104,113,122,127,128,129,130,131,133,134,135,136,137},{2,11,36,54,95,105,123,127,128,129,130,131,132,134,135,136,137},{3,12,28,37,55,87,96,106,114,124,127,128,129,130,131,132,133,135,136,137},{38,56,66,76,127,128,129,130,131,132,133,134,136,137},{4,13,19,39,47,57,67,77,125,127,128,129,130,131,132,133,134,135,137},{6,15,21,41,49,59,79,126,127,128,129,130,131,132,133,134,135,136}];
weights=[43,421,23,214,120,125,122,128,461,127,506,80,335,130,74,116,328,71,66,220,314,132,90,170,127,71,66,26,26,38,421,506,66,66,215,99,111,201,10,171,35,128,64,178,26,215,244,40,51,40,32,44,99,244,108,568,86,248,105,95,157,155,23,80,111,108,8,38,18,10,30,214,335,26,201,568,17,41,25,25,34,158,24,20,14,12,86,17,12,120,130,220,171,40,248,38,41,20,28,125,74,314,35,51,105,18,25,8,122,116,132,128,40,95,25,13,24,128,328,90,64,32,157,10,34,20,13,461,170,38,178,44,155,30,158,12,28,24];
